NAME : gr96.tsp
TYPE : TOUR
DIMENSION : 96
TOUR_LENGTH : 538.4411086807879
TOUR_SECTION
1
30
31
29
2
3
4
5
6
8
7
9
10
12
13
14
15
16
17
20
18
19
21
25
24
23
22
26
28
27
65
96
95
92
93
94
68
67
66
64
63
62
61
60
59
71
72
73
76
77
75
74
84
85
86
78
88
87
89
90
91
83
81
82
70
69
57
56
58
54
48
47
46
11
45
44
33
34
35
32
36
37
38
39
40
41
42
43
49
50
52
53
55
51
79
80
-1
